1 7 16000
2 4 1000
3 2 7000
4 2 14000
5 3 6000
6 4 10000
7 7 12000
8 5 18000
9 4 5000
10 3 11000
11 2 6000
12 3 13000
13 2 18000
14 2 5000
15 2 17000
16 7 17000
17 3 7000
18 2 12000
19 1 14000
20 4 9000
21 4 9000
22 1 6000
23 4 3000
24 7 6000
25 6 12000
26 7 8000
27 2 19000